c This is an instance of the exact track of PACE 2020 Challenge, see https://pacechallenge.org/2020/ 
c TYPE: social 
c ORIGIN: http://networkrepository.com/ 
c DESCRIPTION: an animal social network 
p tdp 21 72
1 2
2 3
2 4
2 7
2 9
2 15
2 12
2 16
2 13
3 4
3 5
3 6
3 7
3 8
3 9
3 10
3 11
3 12
3 13
3 14
4 5
4 6
4 7
4 9
4 10
4 15
4 11
4 12
4 13
4 14
5 7
5 10
5 11
5 13
6 9
6 10
6 11
6 12
6 13
6 14
7 18
7 8
7 9
7 10
7 15
7 11
7 12
7 19
7 13
7 14
8 13
9 17
9 18
9 10
9 15
9 11
9 12
9 13
9 14
10 11
10 16
10 13
10 14
11 12
11 13
11 14
12 18
12 20
12 13
12 21
13 18
13 14
